p cnf 207 599
1 0
-9 -5 0
-9 -6 0
9 5 6 0
-10 -5 0
-10 -9 0
10 5 9 0
-11 2 0
-11 -10 0
11 -2 10 0
-12 2 0
-12 -11 0
12 -2 11 0
-13 -3 0
-13 -12 0
13 3 12 0
-14 -3 0
-14 -13 0
14 3 13 0
-15 -4 0
-15 -14 0
15 4 14 0
-16 -4 0
-16 -15 0
16 4 15 0
-17 -2 0
-17 -10 0
17 2 10 0
-18 -2 0
-18 -17 0
18 2 17 0
-19 -3 0
-19 -18 0
19 3 18 0
-20 3 0
-20 -12 0
20 -3 12 0
-21 -19 0
-21 -20 0
21 19 20 0
-22 -4 0
-22 -21 0
22 4 21 0
-23 -4 0
-23 -22 0
23 4 22 0
-24 5 0
-24 6 0
24 -5 -6 0
-25 -3 0
-25 -24 0
25 3 24 0
-26 -2 0
-26 -24 0
26 2 24 0
-27 -2 0
-27 -26 0
27 2 26 0
-28 3 0
-28 -27 0
28 -3 27 0
-29 -25 0
-29 -28 0
29 25 28 0
-30 4 0
-30 -29 0
30 -4 29 0
-31 5 0
-31 -8 0
31 -5 8 0
-32 -24 0
-32 31 0
32 24 -31 0
-33 5 0
-33 -7 0
33 -5 7 0
-34 -24 0
-34 33 0
34 24 -33 0
-35 5 0
-35 7 0
35 -5 -7 0
-36 -34 0
-36 -35 0
36 34 35 0
-37 8 0
-37 -36 0
37 -8 36 0
-38 -32 0
-38 -37 0
38 32 37 0
-39 2 0
-39 3 0
39 -2 -3 0
-40 -38 0
-40 39 0
40 38 -39 0
-41 -4 0
-41 -40 0
41 4 40 0
-42 -30 0
-42 -41 0
42 30 41 0
-43 5 0
-43 -24 0
43 -5 24 0
-44 2 0
-44 -43 0
44 -2 43 0
-45 2 0
-45 -44 0
45 -2 44 0
-46 -3 0
-46 -45 0
46 3 45 0
-47 7 0
-47 24 0
47 -7 -24 0
-48 -8 0
-48 -47 0
48 8 47 0
-49 -8 0
-49 -48 0
49 8 48 0
-50 2 0
-50 -49 0
50 -2 49 0
-51 2 0
-51 -50 0
51 -2 50 0
-52 3 0
-52 -51 0
52 -3 51 0
-53 -46 0
-53 -52 0
53 46 52 0
-54 -4 0
-54 -53 0
54 4 53 0
-55 -4 0
-55 -54 0
55 4 54 0
-56 -36 0
-56 39 0
56 36 -39 0
-57 2 0
-57 -3 0
57 -2 3 0
-58 -44 0
-58 57 0
58 44 -57 0
-59 -4 0
-59 -58 0
59 4 58 0
-60 -56 0
-60 59 0
60 56 -59 0
-61 -30 0
-61 -60 0
61 30 60 0
-62 -5 0
-62 6 0
62 5 -6 0
-63 -5 0
-63 -62 0
63 5 62 0
-64 4 0
-64 -63 0
64 -4 63 0
-65 4 0
-65 -64 0
65 -4 64 0
-66 -2 0
-66 -43 0
66 2 43 0
-67 -2 0
-67 -66 0
67 2 66 0
-68 3 0
-68 -67 0
68 -3 67 0
-69 3 0
-69 -68 0
69 -3 68 0
-70 4 0
-70 -69 0
70 -4 69 0
-71 4 0
-71 -70 0
71 -4 70 0
-72 3 0
-72 -45 0
72 -3 45 0
-73 3 0
-73 -72 0
73 -3 72 0
-74 4 0
-74 -73 0
74 -4 73 0
-75 4 0
-75 -74 0
75 -4 74 0
-76 -3 0
-76 -46 0
76 3 46 0
-77 4 0
-77 -76 0
77 -4 76 0
-78 4 0
-78 -77 0
78 -4 77 0
-79 -3 0
-79 -67 0
79 3 67 0
-80 -3 0
-80 -79 0
80 3 79 0
-81 4 0
-81 -80 0
81 -4 80 0
-82 4 0
-82 -81 0
82 -4 81 0
-83 -2 0
-83 -63 0
83 2 63 0
-84 -2 0
-84 -83 0
84 2 83 0
-85 4 0
-85 -84 0
85 -4 84 0
-86 4 0
-86 -85 0
86 -4 85 0
-87 2 0
-87 -63 0
87 -2 63 0
-88 2 0
-88 -87 0
88 -2 87 0
-89 4 0
-89 -88 0
89 -4 88 0
-90 4 0
-90 -89 0
90 -4 89 0
-91 3 0
-91 -63 0
91 -3 63 0
-92 -2 0
-92 5 0
92 2 -5 0
-93 -87 0
-93 -92 0
93 87 92 0
-94 -3 0
-94 -93 0
94 3 93 0
-95 -91 0
-95 -94 0
95 91 94 0
-96 -4 0
-96 -95 0
96 4 95 0
-97 -3 0
-97 6 0
97 3 -6 0
-98 3 0
-98 -43 0
98 -3 43 0
-99 -97 0
-99 -98 0
99 97 98 0
-100 4 0
-100 -99 0
100 -4 99 0
-101 -96 0
-101 -100 0
101 96 100 0
-102 -3 0
-102 -84 0
102 3 84 0
-103 -3 0
-103 -102 0
103 3 102 0
-104 -4 0
-104 -103 0
104 4 103 0
-105 -4 0
-105 -104 0
105 4 104 0
-106 4 0
-106 -10 0
106 -4 10 0
-107 3 0
-107 -93 0
107 -3 93 0
-108 -9 0
-108 25 0
108 9 -25 0
-109 -4 0
-109 -108 0
109 4 108 0
-110 -107 0
-110 109 0
110 107 -109 0
-111 -106 0
-111 -110 0
111 106 110 0
-112 3 0
-112 -91 0
112 -3 91 0
-113 4 0
-113 -112 0
113 -4 112 0
-114 3 0
-114 -18 0
114 -3 18 0
-115 -25 0
-115 -114 0
115 25 114 0
-116 -4 0
-116 -115 0
116 4 115 0
-117 -113 0
-117 -116 0
117 113 116 0
-118 3 0
-118 -4 0
118 -3 4 0
-119 -114 0
-119 118 0
119 114 -118 0
-120 -9 0
-120 -24 0
120 9 24 0
-121 3 0
-121 4 0
121 -3 -4 0
-122 -120 0
-122 121 0
122 120 -121 0
-123 -119 0
-123 -122 0
123 119 122 0
-124 -3 0
-124 -27 0
124 3 27 0
-125 -3 0
-125 -4 0
125 3 4 0
-126 -124 0
-126 125 0
126 124 -125 0
-127 24 0
-127 57 0
127 -24 -57 0
-128 -2 0
-128 -5 0
128 2 5 0
-129 -62 0
-129 128 0
129 62 -128 0
-130 2 0
-130 -120 0
130 -2 120 0
-131 -129 0
-131 -130 0
131 129 130 0
-132 3 0
-132 -131 0
132 -3 131 0
-133 -127 0
-133 -132 0
133 127 132 0
-134 4 0
-134 -133 0
134 -4 133 0
-135 -126 0
-135 -134 0
135 126 134 0
-136 -9 0
-136 26 0
136 9 -26 0
-137 -87 0
-137 -136 0
137 87 136 0
-138 3 0
-138 -137 0
138 -3 137 0
-139 -108 0
-139 -138 0
139 108 138 0
-140 -4 0
-140 -139 0
140 4 139 0
-141 4 0
-141 5 0
141 -4 -5 0
-142 6 0
-142 141 0
142 -6 -141 0
-143 -140 0
-143 -142 0
143 140 142 0
-144 5 0
-144 8 0
144 -5 -8 0
-145 -32 0
-145 -144 0
145 32 144 0
-146 3 0
-146 -145 0
146 -3 145 0
-147 -4 0
-147 -146 0
147 4 146 0
-148 3 0
-148 -10 0
148 -3 10 0
-149 3 0
-149 -148 0
149 -3 148 0
-150 4 0
-150 -149 0
150 -4 149 0
-151 -147 0
-151 -150 0
151 147 150 0
-152 6 0
-152 7 0
152 -6 -7 0
-153 92 0
-153 152 0
153 -92 -152 0
-154 2 0
-154 -38 0
154 -2 38 0
-155 -153 0
-155 -154 0
155 153 154 0
-156 3 0
-156 -155 0
156 -3 155 0
-157 -4 0
-157 -156 0
157 4 156 0
-158 4 0
-158 -12 0
158 -4 12 0
-159 -157 0
-159 -158 0
159 157 158 0
-160 -3 0
-160 -131 0
160 3 131 0
-161 -148 0
-161 -160 0
161 148 160 0
-162 -4 0
-162 -161 0
162 4 161 0
-163 -106 0
-163 -162 0
163 106 162 0
-164 -2 0
-164 -120 0
164 2 120 0
-165 -44 0
-165 -164 0
165 44 164 0
-166 3 0
-166 -165 0
166 -3 165 0
-167 -124 0
-167 -166 0
167 124 166 0
-168 -4 0
-168 -167 0
168 4 167 0
-169 -4 0
-169 -168 0
169 4 168 0
-170 3 0
-170 5 0
170 -3 -5 0
-171 6 0
-171 170 0
171 -6 -170 0
-172 -127 0
-172 -171 0
172 127 171 0
-173 -4 0
-173 -172 0
173 4 172 0
-174 -3 0
-174 5 0
174 3 -5 0
-175 6 0
-175 174 0
175 -6 -174 0
-176 3 0
-176 -120 0
176 -3 120 0
-177 -175 0
-177 -176 0
177 175 176 0
-178 4 0
-178 -177 0
178 -4 177 0
-179 -173 0
-179 -178 0
179 173 178 0
-180 -124 0
-180 -148 0
180 124 148 0
-181 -4 0
-181 -180 0
181 4 180 0
-182 -113 0
-182 -181 0
182 113 181 0
-183 179 0
-183 -182 0
183 -179 182 0
-184 -169 0
-184 183 0
184 169 -183 0
-185 -163 0
-185 184 0
185 163 -184 0
-186 -159 0
-186 185 0
186 159 -185 0
-187 -151 0
-187 186 0
187 151 -186 0
-188 143 0
-188 187 0
188 -143 -187 0
-189 135 0
-189 188 0
189 -135 -188 0
-190 123 0
-190 189 0
190 -123 -189 0
-191 -117 0
-191 190 0
191 117 -190 0
-192 -111 0
-192 191 0
192 111 -191 0
-193 -105 0
-193 192 0
193 105 -192 0
-194 101 0
-194 193 0
194 -101 -193 0
-195 -90 0
-195 194 0
195 90 -194 0
-196 -86 0
-196 195 0
196 86 -195 0
-197 -82 0
-197 196 0
197 82 -196 0
-198 -78 0
-198 197 0
198 78 -197 0
-199 -75 0
-199 198 0
199 75 -198 0
-200 -71 0
-200 199 0
200 71 -199 0
-201 -65 0
-201 200 0
201 65 -200 0
-202 -61 0
-202 201 0
202 61 -201 0
-203 -55 0
-203 202 0
203 55 -202 0
-204 -42 0
-204 203 0
204 42 -203 0
-205 -1 0
-205 204 0
205 1 -204 0
-206 -23 0
-206 205 0
206 23 -205 0
-207 -16 0
-207 206 0
207 16 -206 0
-207 0
